param m := 4;
param n := 12;
param p: 1 2 3 4 5 6 7 8 9 10 11 12 :=
1 37 94 26 76 118 32 109 79 51 178 97 45
2 67 110 44 99 133 46 106 110 80 150 140 60
3 30 80 50 66 78 45 87 93 44 85 105 54
4 64 34 87 89 94 54 91 80 67 129 110 80
;